/* Problème 2.1 */

/* Objective function */
min: +z1 +z2 +z3;

/* Constraints */
+y1 +y2 +y3 = 1;
-9 y1 -202 y2 +204 y3 <= 0;
+180 y1 -406 y2 -117 y3 <= 0;
+254 y1 -152 y2 -122 y3 +3.1706448801e+016 z2 <= 0;
-240 y1 +292 y2 -311 y3 <= 0;
-y1 +z1 >= -0.374384236453;
+y1 +z1 >= 0.374384236453;
-y2 +z2 >= -0.625615763547;
+y2 +z2 >= 0.625615763547;
-y3 +z3 >= 0;
+y3 +z3 >= 0;
